Rooms/2nwall22-3.dzn
n = 22;

w =
[|0,0,5,5,5,5,5,0,0,0,0,0,0,0,3,0,0,0,0,0,0,0,
 |0,0,0,0,0,0,0,0,0,0,0,0,0,0,3,3,3,3,0,0,0,0,
 |0,0,0,0,1,0,0,0,0,0,0,0,5,0,3,0,8,0,0,0,1,0,
 |1,0,1,3,3,3,0,0,0,0,0,0,5,2,0,4,8,0,0,0,0,0,
 |0,0,0,0,0,2,2,0,0,0,0,0,5,2,1,4,8,0,0,0,0,0,
 |0,0,0,0,6,6,6,6,6,6,0,0,5,0,0,4,8,0,0,0,0,0,
 |8,8,8,8,8,8,8,8,0,0,0,2,5,0,0,4,8,0,0,8,0,0,
 |0,0,1,0,0,0,0,0,0,0,0,2,0,0,0,0,8,0,0,8,0,9,
 |0,0,0,0,0,0,0,9,9,9,9,9,9,9,9,9,8,2,10,8,0,9,
 |0,5,5,5,5,5,5,5,5,5,5,1,0,0,0,0,8,2,10,8,0,9,
 |0,0,0,0,0,0,0,0,0,0,0,0,0,0,0,0,0,0,10,8,7,9,
 |0,0,0,0,0,0,0,6,6,6,6,6,6,6,0,0,0,0,10,8,7,9,
 |0,0,6,6,6,6,6,6,0,0,0,0,0,6,1,0,0,4,10,8,7,9,
 |0,0,0,0,0,8,8,8,8,8,8,8,8,6,0,0,0,4,10,8,7,9,
 |0,0,8,8,8,8,8,8,8,8,0,0,0,6,0,0,0,4,10,0,7,9,
 |8,8,8,8,8,8,8,8,0,0,0,0,0,6,0,0,0,4,10,0,7,9,
 |4,0,0,9,9,9,9,9,9,9,9,9,0,6,0,0,0,0,10,1,7,0,
 |4,0,0,0,0,0,0,0,0,0,0,0,0,0,0,1,0,0,10,0,0,0,
 |4,0,0,0,0,0,0,0,0,0,0,0,0,5,5,5,5,5,0,0,0,0,
 |4,0,0,0,1,0,0,0,0,4,4,4,4,0,0,0,0,0,1,0,0,0,
 |0,0,0,0,0,0,0,0,0,0,0,0,0,0,0,0,0,0,0,0,0,0,
 |0,0,0,0,0,0,0,0,0,0,0,0,7,7,7,7,7,7,7,0,0,0,
 |];

